CMPL model generation - running

CMPL version: 1.11.0
Authors: Thomas Schleiff, Mike Steglich
Distributed under the GPLv3 

create model instance ...
write model instance ...
CMPL model generation - finished

Solver - running


Welcome to IBM(R) ILOG(R) CPLEX(R) Interactive Optimizer 12.7.1.0
  with Simplex, Mixed Integer & Barrier Optimizers
5725-A06 5725-A29 5724-Y48 5724-Y49 5724-Y54 5724-Y55 5655-Y21
Copyright IBM Corp. 1988, 2017.  All Rights Reserved.

Type 'help' for a list of available commands.
Type 'help' followed by a command name for more
information on commands.

CPLEX> Specified objective sense: MINIMIZE
Selected objective  name:  line[1]
Selected RHS        name:  RHS
Selected bound      name:  BOUND
Problem '/tmp/cmpl.T24302.mps' read.
Read time = 0.05 sec. (8.17 ticks)
CPLEX> CPXPARAM_Read_APIEncoding                        "UTF-8"
Tried aggregator 3 times.
MIP Presolve eliminated 19181 rows and 30594 columns.
MIP Presolve modified 340 coefficients.
Aggregator did 665 substitutions.
Reduced MIP has 2509 rows, 3334 columns, and 9722 nonzeros.
Reduced MIP has 3166 binaries, 0 generals, 0 SOSs, and 0 indicators.
Presolve time = 0.05 sec. (40.55 ticks)
Found incumbent of value 1093.594286 after 0.09 sec. (63.79 ticks)
Probing fixed 11 vars, tightened 0 bounds.
Probing time = 0.01 sec. (4.36 ticks)
Tried aggregator 1 time.
MIP Presolve eliminated 0 rows and 11 columns.
MIP Presolve modified 57 coefficients.
Reduced MIP has 2509 rows, 3323 columns, and 9700 nonzeros.
Reduced MIP has 3323 binaries, 0 generals, 0 SOSs, and 0 indicators.
Presolve time = 0.01 sec. (8.27 ticks)
Probing time = 0.01 sec. (2.69 ticks)
Clique table members: 6013.
MIP emphasis: balance optimality and feasibility.
MIP search method: dynamic search.
Parallel mode: none, using 1 thread.
Root relaxation solution time = 0.01 sec. (5.55 ticks)

        Nodes                                         Cuts/
   Node  Left     Objective  IInf  Best Integer    Best Bound    ItCnt     Gap

*     0+    0                         1093.5943      -29.6457           102.71%
      0     0      235.5109     6     1093.5943      235.5109      200   78.46%
*     0+    0                          243.3486      235.5109             3.22%
*     0+    0                          235.6823      235.5109             0.07%
      0     0      235.6629     1      235.6823       Cuts: 8      205    0.01%

Clique cuts applied:  2
Cover cuts applied:  4
Gomory fractional cuts applied:  2

Root node processing (before b&c):
  Real time             =    0.15 sec. (104.38 ticks)
Sequential b&c:
  Real time             =    0.00 sec. (0.00 ticks)
                          ------------
Total (root+branch&cut) =    0.15 sec. (104.38 ticks)

Solution pool: 3 solutions saved.

MIP - Integer optimal, tolerance (0.0001/1e-06):  Objective =  2.3568228600e+02
Current MIP best bound =  2.3566285800e+02 (gap = 0.019428, 0.01%)
Solution time =    0.15 sec.  Iterations = 205  Nodes = 0 (1)
Deterministic time = 104.48 ticks  (692.98 ticks/sec)

CPLEX> Incumbent solution written to file '/tmp/cmpl.T24302.gsol'.
CPLEX> 
CMPL: Time used for model generation: 1 seconds
CMPL: Time used for solving the model: 1 seconds


Solution written to ASCII file: results/output_generated_conf_0.6/2015-12-07-4/fair-nonlinear.sol

Solver - finished
